treewidth/data/JohnsonGraph_8_2.gr
p tw 28 168
1 13
1 22
1 24
1 3
1 4
1 6
1 10
1 11
1 12
1 15
1 17
1 21
2 22
2 23
2 26
2 27
2 28
2 3
2 7
2 8
2 12
2 14
2 17
2 18
13 22
13 24
13 3
13 5
13 6
13 7
13 10
13 14
13 15
13 16
13 19
22 24
22 27
22 28
22 3
22 7
22 10
22 15
22 17
22 18
23 25
23 26
23 28
23 3
23 8
23 12
23 14
23 15
23 16
23 20
23 21
24 25
24 3
24 4
24 5
24 8
24 9
24 10
24 15
24 18
25 28
25 4
25 5
25 8
25 9
25 15
25 16
25 18
25 20
25 21
26 27
26 3
26 8
26 9
26 10
26 11
26 12
26 14
26 19
26 20
27 28
27 7
27 9
27 10
27 11
27 17
27 18
27 19
27 20
28 7
28 15
28 16
28 17
28 18
28 20
28 21
3 8
3 10
3 12
3 14
3 15
4 5
4 6
4 8
4 9
4 11
4 12
4 17
4 18
4 21
5 6
5 7
5 8
5 9
5 14
5 16
5 18
5 19
6 7
6 11
6 12
6 14
6 16
6 17
6 19
6 21
7 14
7 16
7 17
7 18
7 19
8 9
8 12
8 14
8 18
9 10
9 11
9 18
9 19
9 20
10 11
10 15
10 19
10 20
11 12
11 17
11 19
11 20
11 21
12 14
12 17
12 21
14 16
14 19
15 16
15 20
15 21
16 19
16 20
16 21
17 18
17 21
19 20
20 21
