treewidth/data/JohnsonGraph_8_2.td
c width = 18, time = 0.528531
s td 4 19 28
b 1 5 6 7 9 10 11 13 14 15 16 19 20 21 23 25 26 27 28
b 2 4 5 6 7 8 9 10 11 13 14 15 18 21 23 24 25 26 27 28
b 3 2 4 6 7 8 10 11 13 14 15 17 18 21 22 23 24 26 27 28
b 4 1 2 3 4 6 8 10 11 12 13 14 15 17 21 22 23 24 26
3 4
2 3
1 2
